
Gurobi 6.5.2 (mac64) logging started Sat Apr  8 17:19:08 2017


Gurobi 6.5.2 (mac64) logging started Sat Apr  8 17:20:46 2017


Gurobi 6.5.2 (mac64) logging started Sat Apr  8 17:23:27 2017


Gurobi 6.5.2 (mac64) logging started Sat Apr  8 17:35:46 2017


Gurobi 6.5.2 (mac64) logging started Sat Apr  8 19:46:35 2017


Gurobi 6.5.2 (mac64) logging started Sat Apr  8 19:52:07 2017


Gurobi 6.5.2 (mac64) logging started Sat Apr  8 19:57:33 2017


Gurobi 6.5.2 (mac64) logging started Sat Apr  8 20:06:15 2017


Gurobi 6.5.2 (mac64) logging started Sat Apr  8 20:10:30 2017


Gurobi 6.5.2 (mac64) logging started Sat Apr  8 20:11:05 2017


Gurobi 6.5.2 (mac64) logging started Sun Apr  9 10:28:46 2017


Gurobi 6.5.2 (mac64) logging started Sun Apr  9 10:31:25 2017


Gurobi 6.5.2 (mac64) logging started Sun Apr  9 10:32:29 2017


Gurobi 6.5.2 (mac64) logging started Sun Apr  9 12:27:47 2017


Gurobi 6.5.2 (mac64) logging started Sun Apr  9 12:29:45 2017


Gurobi 6.5.2 (mac64) logging started Sun Apr  9 12:30:15 2017


Gurobi 6.5.2 (mac64) logging started Sun Apr  9 12:31:11 2017


Gurobi 6.5.2 (mac64) logging started Sun Apr  9 12:31:48 2017


Gurobi 6.5.2 (mac64) logging started Sun Apr  9 12:32:10 2017


Gurobi 6.5.2 (mac64) logging started Sun Apr  9 12:32:46 2017


Gurobi 6.5.2 (mac64) logging started Sun Apr  9 12:33:08 2017


Gurobi 6.5.2 (mac64) logging started Sun Apr  9 12:34:53 2017


Gurobi 6.5.2 (mac64) logging started Sun Apr  9 12:37:19 2017


Gurobi 6.5.2 (mac64) logging started Sun Apr  9 12:43:13 2017


Gurobi 6.5.2 (mac64) logging started Sun Apr  9 12:45:16 2017


Gurobi 6.5.2 (mac64) logging started Sun Apr  9 12:58:54 2017


Gurobi 6.5.2 (mac64) logging started Sun Apr  9 13:04:19 2017


Gurobi 6.5.2 (mac64) logging started Sun Apr  9 13:06:13 2017


Gurobi 6.5.2 (mac64) logging started Sun Apr  9 13:32:32 2017


Gurobi 6.5.2 (mac64) logging started Sun Apr  9 13:37:23 2017


Gurobi 6.5.2 (mac64) logging started Sun Apr  9 14:03:08 2017


Gurobi 6.5.2 (mac64) logging started Sun Apr  9 14:05:03 2017


Gurobi 6.5.2 (mac64) logging started Sun Apr  9 14:08:02 2017


Gurobi 6.5.2 (mac64) logging started Sun Apr  9 14:21:55 2017


Gurobi 6.5.2 (mac64) logging started Mon Apr 10 18:16:35 2017


Gurobi 6.5.2 (mac64) logging started Mon Apr 10 18:17:38 2017


Gurobi 6.5.2 (mac64) logging started Mon Apr 10 18:18:05 2017


Gurobi 6.5.2 (mac64) logging started Mon Apr 10 18:18:22 2017


Gurobi 6.5.2 (mac64) logging started Mon Apr 10 18:18:53 2017


Gurobi 6.5.2 (mac64) logging started Mon Apr 10 18:21:00 2017


Gurobi 6.5.2 (mac64) logging started Mon Apr 10 18:28:48 2017


Gurobi 6.5.2 (mac64) logging started Mon Apr 10 18:34:42 2017


Gurobi 6.5.2 (mac64) logging started Mon Apr 10 18:37:32 2017


Gurobi 6.5.2 (mac64) logging started Mon Apr 10 18:39:40 2017


Gurobi 6.5.2 (mac64) logging started Mon Apr 10 18:41:17 2017


Gurobi 6.5.2 (mac64) logging started Mon Apr 10 18:42:24 2017


Gurobi 6.5.2 (mac64) logging started Mon Apr 10 18:43:25 2017


Gurobi 6.5.2 (mac64) logging started Mon Apr 10 18:45:55 2017


Gurobi 6.5.2 (mac64) logging started Mon Apr 10 18:47:19 2017


Gurobi 6.5.2 (mac64) logging started Mon Apr 10 18:48:00 2017


Gurobi 6.5.2 (mac64) logging started Mon Apr 10 18:55:15 2017


Gurobi 6.5.2 (mac64) logging started Mon Apr 10 18:55:44 2017


Gurobi 6.5.2 (mac64) logging started Mon Apr 10 18:57:36 2017


Gurobi 6.5.2 (mac64) logging started Mon Apr 10 18:59:22 2017


Gurobi 6.5.2 (mac64) logging started Mon Apr 10 19:00:55 2017


Gurobi 6.5.2 (mac64) logging started Mon Apr 10 19:15:41 2017


Gurobi 6.5.2 (mac64) logging started Mon Apr 10 19:18:19 2017


Gurobi 6.5.2 (mac64) logging started Tue Apr 11 22:11:39 2017


Gurobi 6.5.2 (mac64) logging started Tue Apr 11 22:12:36 2017


Gurobi 6.5.2 (mac64) logging started Tue Apr 11 22:19:50 2017


Gurobi 6.5.2 (mac64) logging started Tue Apr 11 22:29:12 2017


Gurobi 6.5.2 (mac64) logging started Tue Apr 11 22:39:33 2017


Gurobi 6.5.2 (mac64) logging started Tue Apr 11 23:02:08 2017


Gurobi 6.5.2 (mac64) logging started Jeu 13 avr 10:50:04 2017


Gurobi 6.5.2 (mac64) logging started Jeu 13 avr 15:23:20 2017


Gurobi 6.5.2 (mac64) logging started Jeu 13 avr 15:24:23 2017


Gurobi 6.5.2 (mac64) logging started Jeu 13 avr 15:24:51 2017


Gurobi 6.5.2 (mac64) logging started Jeu 13 avr 15:26:29 2017


Gurobi 6.5.2 (mac64) logging started Jeu 13 avr 15:27:43 2017


Gurobi 6.5.2 (mac64) logging started Jeu 13 avr 15:28:56 2017


Gurobi 6.5.2 (mac64) logging started Jeu 13 avr 15:29:28 2017


Gurobi 6.5.2 (mac64) logging started Jeu 13 avr 15:31:47 2017


Gurobi 6.5.2 (mac64) logging started Jeu 13 avr 15:32:59 2017


Gurobi 6.5.2 (mac64) logging started Jeu 13 avr 15:33:37 2017


Gurobi 6.5.2 (mac64) logging started Jeu 13 avr 15:34:01 2017


Gurobi 6.5.2 (mac64) logging started Jeu 13 avr 15:34:32 2017


Gurobi 6.5.2 (mac64) logging started Jeu 13 avr 15:35:01 2017


Gurobi 6.5.2 (mac64) logging started Jeu 13 avr 15:35:47 2017


Gurobi 6.5.2 (mac64) logging started Ven 14 avr 01:04:27 2017


Gurobi 6.5.2 (mac64) logging started Ven 14 avr 01:05:51 2017


Gurobi 6.5.2 (mac64) logging started Ven 14 avr 01:07:29 2017


Gurobi 6.5.2 (mac64) logging started Ven 14 avr 01:09:01 2017


Gurobi 6.5.2 (mac64) logging started Ven 14 avr 01:16:56 2017


Gurobi 6.5.2 (mac64) logging started Ven 14 avr 01:17:54 2017


Gurobi 6.5.2 (mac64) logging started Ven 14 avr 01:29:14 2017


Gurobi 6.5.2 (mac64) logging started Ven 14 avr 01:37:52 2017


Gurobi 6.5.2 (mac64) logging started Ven 14 avr 01:42:22 2017


Gurobi 6.5.2 (mac64) logging started Ven 14 avr 01:50:37 2017


Gurobi 6.5.2 (mac64) logging started Sam 15 avr 15:29:04 2017


Gurobi 6.5.2 (mac64) logging started Sam 15 avr 15:30:11 2017


Gurobi 6.5.2 (mac64) logging started Sam 15 avr 15:31:01 2017


Gurobi 6.5.2 (mac64) logging started Sam 15 avr 15:31:30 2017


Gurobi 6.5.2 (mac64) logging started Sam 15 avr 15:31:49 2017


Gurobi 6.5.2 (mac64) logging started Sam 15 avr 15:35:16 2017


Gurobi 6.5.2 (mac64) logging started Sam 15 avr 15:40:05 2017


Gurobi 6.5.2 (mac64) logging started Sam 15 avr 15:40:45 2017


Gurobi 6.5.2 (mac64) logging started Sam 15 avr 15:41:47 2017


Gurobi 6.5.2 (mac64) logging started Sam 15 avr 15:46:44 2017


Gurobi 6.5.2 (mac64) logging started Sam 15 avr 15:48:52 2017


Gurobi 6.5.2 (mac64) logging started Sam 15 avr 15:54:59 2017


Gurobi 6.5.2 (mac64) logging started Sam 15 avr 15:57:37 2017


Gurobi 6.5.2 (mac64) logging started Sam 15 avr 15:59:38 2017


Gurobi 6.5.2 (mac64) logging started Sam 15 avr 16:01:02 2017


Gurobi 6.5.2 (mac64) logging started Sam 15 avr 16:03:34 2017


Gurobi 6.5.2 (mac64) logging started Sam 15 avr 16:06:28 2017


Gurobi 6.5.2 (mac64) logging started Sam 15 avr 16:13:14 2017


Gurobi 6.5.2 (mac64) logging started Sam 15 avr 16:14:04 2017


Gurobi 6.5.2 (mac64) logging started Sam 15 avr 16:17:57 2017


Gurobi 6.5.2 (mac64) logging started Sam 15 avr 16:19:51 2017


Gurobi 6.5.2 (mac64) logging started Sam 15 avr 16:25:41 2017


Gurobi 6.5.2 (mac64) logging started Sam 15 avr 16:30:20 2017


Gurobi 6.5.2 (mac64) logging started Sam 15 avr 16:34:50 2017


Gurobi 6.5.2 (mac64) logging started Sam 15 avr 16:38:19 2017


Gurobi 6.5.2 (mac64) logging started Sam 15 avr 16:50:45 2017


Gurobi 6.5.2 (mac64) logging started Sam 15 avr 16:55:12 2017


Gurobi 6.5.2 (mac64) logging started Sam 15 avr 16:56:51 2017


Gurobi 6.5.2 (mac64) logging started Sam 15 avr 17:00:43 2017


Gurobi 6.5.2 (mac64) logging started Sam 15 avr 17:01:16 2017


Gurobi 6.5.2 (mac64) logging started Sam 15 avr 17:02:10 2017


Gurobi 6.5.2 (mac64) logging started Sam 15 avr 17:03:42 2017


Gurobi 6.5.2 (mac64) logging started Sam 15 avr 17:23:19 2017


Gurobi 6.5.2 (mac64) logging started Sam 15 avr 17:45:59 2017


Gurobi 6.5.2 (mac64) logging started Sam 15 avr 17:52:07 2017


Gurobi 6.5.2 (mac64) logging started Sam 15 avr 17:52:52 2017


Gurobi 6.5.2 (mac64) logging started Sam 15 avr 17:58:21 2017


Gurobi 6.5.2 (mac64) logging started Sam 15 avr 18:00:21 2017


Gurobi 6.5.2 (mac64) logging started Sam 15 avr 18:09:23 2017


Gurobi 6.5.2 (mac64) logging started Sam 15 avr 18:09:47 2017


Gurobi 6.5.2 (mac64) logging started Sam 15 avr 18:11:18 2017


Gurobi 6.5.2 (mac64) logging started Sam 15 avr 18:12:36 2017


Gurobi 6.5.2 (mac64) logging started Sam 15 avr 18:30:29 2017


Gurobi 6.5.2 (mac64) logging started Sam 15 avr 18:32:07 2017


Gurobi 6.5.2 (mac64) logging started Sam 15 avr 18:32:37 2017


Gurobi 6.5.2 (mac64) logging started Sam 15 avr 18:33:29 2017


Gurobi 6.5.2 (mac64) logging started Sam 15 avr 18:34:40 2017


Gurobi 6.5.2 (mac64) logging started Sam 15 avr 18:35:02 2017


Gurobi 6.5.2 (mac64) logging started Sam 15 avr 18:36:25 2017


Gurobi 6.5.2 (mac64) logging started Sam 15 avr 18:39:20 2017


Gurobi 6.5.2 (mac64) logging started Sam 15 avr 18:42:06 2017


Gurobi 6.5.2 (mac64) logging started Sam 15 avr 18:45:37 2017


Gurobi 6.5.2 (mac64) logging started Sam 15 avr 18:49:08 2017


Gurobi 6.5.2 (mac64) logging started Sam 15 avr 19:11:48 2017


Gurobi 6.5.2 (mac64) logging started Sam 15 avr 19:13:05 2017


Gurobi 6.5.2 (mac64) logging started Sam 15 avr 19:38:05 2017


Gurobi 6.5.2 (mac64) logging started Lun 17 avr 00:38:59 2017


Gurobi 6.5.2 (mac64) logging started Lun 17 avr 00:49:23 2017


Gurobi 6.5.2 (mac64) logging started Lun 17 avr 00:52:59 2017


Gurobi 6.5.2 (mac64) logging started Lun 17 avr 01:05:04 2017


Gurobi 6.5.2 (mac64) logging started Mar 18 avr 09:47:43 2017


Gurobi 6.5.2 (mac64) logging started Mer 19 avr 10:51:45 2017


Gurobi 6.5.2 (mac64) logging started Mer 19 avr 10:53:28 2017


Gurobi 6.5.2 (mac64) logging started Mer 19 avr 10:54:35 2017


Gurobi 6.5.2 (mac64) logging started Mer 19 avr 10:55:00 2017


Gurobi 6.5.2 (mac64) logging started Mer 19 avr 10:55:30 2017


Gurobi 6.5.2 (mac64) logging started Mer 19 avr 10:56:22 2017


Gurobi 6.5.2 (mac64) logging started Mer 19 avr 10:56:58 2017


Gurobi 6.5.2 (mac64) logging started Mer 19 avr 10:57:13 2017


Gurobi 6.5.2 (mac64) logging started Mer 19 avr 11:26:01 2017


Gurobi 6.5.2 (mac64) logging started Mer 19 avr 11:27:10 2017


Gurobi 6.5.2 (mac64) logging started Mer 19 avr 11:29:11 2017


Gurobi 6.5.2 (mac64) logging started Mer 19 avr 11:40:48 2017


Gurobi 6.5.2 (mac64) logging started Mer 19 avr 12:12:22 2017


Gurobi 6.5.2 (mac64) logging started Mer 19 avr 12:15:44 2017


Gurobi 6.5.2 (mac64) logging started Mer 19 avr 12:18:25 2017


Gurobi 6.5.2 (mac64) logging started Mer 19 avr 12:29:59 2017


Gurobi 6.5.2 (mac64) logging started Mer 19 avr 12:30:32 2017


Gurobi 6.5.2 (mac64) logging started Mer 19 avr 12:36:00 2017


Gurobi 6.5.2 (mac64) logging started Lun 24 avr 14:09:19 2017


Gurobi 6.5.2 (mac64) logging started Lun 24 avr 14:10:32 2017


Gurobi 6.5.2 (mac64) logging started Lun 24 avr 14:13:31 2017


Gurobi 6.5.2 (mac64) logging started Lun 24 avr 14:16:33 2017


Gurobi 6.5.2 (mac64) logging started Lun 24 avr 14:49:44 2017


Gurobi 6.5.2 (mac64) logging started Mar 25 avr 21:27:58 2017


Gurobi 6.5.2 (mac64) logging started Mar 25 avr 21:40:15 2017


Gurobi 6.5.2 (mac64) logging started Mar 25 avr 21:42:21 2017


Gurobi 6.5.2 (mac64) logging started Mar 25 avr 21:43:58 2017


Gurobi 6.5.2 (mac64) logging started Mar 25 avr 21:45:36 2017


Gurobi 6.5.2 (mac64) logging started Mar 25 avr 21:47:57 2017


Gurobi 6.5.2 (mac64) logging started Mar 25 avr 22:09:06 2017


Gurobi 6.5.2 (mac64) logging started Mar 25 avr 23:38:01 2017


Gurobi 6.5.2 (mac64) logging started Mar 25 avr 23:38:24 2017


Gurobi 6.5.2 (mac64) logging started Mar 25 avr 23:41:15 2017


Gurobi 6.5.2 (mac64) logging started Mar 25 avr 23:42:58 2017


Gurobi 6.5.2 (mac64) logging started Mer 26 avr 00:18:51 2017


Gurobi 6.5.2 (mac64) logging started Mer 26 avr 00:36:20 2017


Gurobi 6.5.2 (mac64) logging started Mer 26 avr 00:38:00 2017


Gurobi 6.5.2 (mac64) logging started Mer 26 avr 00:41:29 2017


Gurobi 6.5.2 (mac64) logging started Mer 26 avr 00:48:32 2017


Gurobi 6.5.2 (mac64) logging started Mer 26 avr 00:51:28 2017


Gurobi 6.5.2 (mac64) logging started Mer 26 avr 00:55:43 2017


Gurobi 6.5.2 (mac64) logging started Mer 26 avr 10:58:48 2017


Gurobi 6.5.2 (mac64) logging started Ven 28 avr 10:02:51 2017


Gurobi 6.5.2 (mac64) logging started Ven 28 avr 10:04:16 2017


Gurobi 6.5.2 (mac64) logging started Ven 28 avr 10:04:50 2017


Gurobi 6.5.2 (mac64) logging started Ven 28 avr 10:05:25 2017


Gurobi 6.5.2 (mac64) logging started Ven 28 avr 10:05:50 2017


Gurobi 6.5.2 (mac64) logging started Ven 28 avr 10:06:10 2017


Gurobi 6.5.2 (mac64) logging started Ven 28 avr 10:16:06 2017


Gurobi 6.5.2 (mac64) logging started Ven 28 avr 10:16:34 2017


Gurobi 6.5.2 (mac64) logging started Ven 28 avr 10:23:16 2017


Gurobi 6.5.2 (mac64) logging started Ven 28 avr 10:24:23 2017


Gurobi 6.5.2 (mac64) logging started Ven 28 avr 10:26:05 2017


Gurobi 6.5.2 (mac64) logging started Ven 28 avr 10:35:54 2017


Gurobi 6.5.2 (mac64) logging started Ven 28 avr 10:43:42 2017


Gurobi 6.5.2 (mac64) logging started Ven 28 avr 12:17:51 2017


Gurobi 6.5.2 (mac64) logging started Ven 28 avr 14:07:25 2017


Gurobi 6.5.2 (mac64) logging started Ven 28 avr 14:09:44 2017


Gurobi 6.5.2 (mac64) logging started Ven 28 avr 14:10:10 2017


Gurobi 6.5.2 (mac64) logging started Ven 28 avr 14:11:41 2017


Gurobi 6.5.2 (mac64) logging started Ven 28 avr 14:17:08 2017


Gurobi 6.5.2 (mac64) logging started Ven 28 avr 14:46:07 2017


Gurobi 6.5.2 (mac64) logging started Sam 29 avr 10:48:31 2017


Gurobi 6.5.2 (mac64) logging started Sam 29 avr 10:51:11 2017


Gurobi 6.5.2 (mac64) logging started Sam 29 avr 10:54:47 2017


Gurobi 6.5.2 (mac64) logging started Sam 29 avr 10:58:09 2017


Gurobi 6.5.2 (mac64) logging started Sam 29 avr 12:15:48 2017


Gurobi 6.5.2 (mac64) logging started Dim 30 avr 10:03:18 2017


Gurobi 6.5.2 (mac64) logging started Dim 30 avr 10:20:44 2017


Gurobi 6.5.2 (mac64) logging started Dim 30 avr 10:22:31 2017


Gurobi 6.5.2 (mac64) logging started Dim 30 avr 10:31:58 2017


Gurobi 6.5.2 (mac64) logging started Dim 30 avr 15:30:35 2017


Gurobi 6.5.2 (mac64) logging started Dim 30 avr 16:00:02 2017


Gurobi 6.5.2 (mac64) logging started Jeu  4 mai 23:10:42 2017


Gurobi 6.5.2 (mac64) logging started Jeu  4 mai 23:12:12 2017


Gurobi 6.5.2 (mac64) logging started Jeu  4 mai 23:13:08 2017


Gurobi 6.5.2 (mac64) logging started Jeu  4 mai 23:14:11 2017


Gurobi 6.5.2 (mac64) logging started Jeu  4 mai 23:21:53 2017


Gurobi 6.5.2 (mac64) logging started Jeu  4 mai 23:22:35 2017


Gurobi 6.5.2 (mac64) logging started Jeu  4 mai 23:28:17 2017


Gurobi 6.5.2 (mac64) logging started Jeu  4 mai 23:31:08 2017


Gurobi 6.5.2 (mac64) logging started Jeu  4 mai 23:33:35 2017


Gurobi 6.5.2 (mac64) logging started Jeu  4 mai 23:34:09 2017


Gurobi 6.5.2 (mac64) logging started Jeu  4 mai 23:37:58 2017


Gurobi 6.5.2 (mac64) logging started Jeu  4 mai 23:40:58 2017


Gurobi 6.5.2 (mac64) logging started Jeu  4 mai 23:41:43 2017


Gurobi 6.5.2 (mac64) logging started Jeu  4 mai 23:42:36 2017


Gurobi 6.5.2 (mac64) logging started Jeu  4 mai 23:43:21 2017


Gurobi 6.5.2 (mac64) logging started Jeu  4 mai 23:43:42 2017


Gurobi 6.5.2 (mac64) logging started Ven  5 mai 00:07:21 2017


Gurobi 6.5.2 (mac64) logging started Ven  5 mai 00:11:06 2017


Gurobi 6.5.2 (mac64) logging started Ven  5 mai 00:28:53 2017


Gurobi 6.5.2 (mac64) logging started Ven  5 mai 00:30:22 2017


Gurobi 6.5.2 (mac64) logging started Ven  5 mai 00:40:33 2017


Gurobi 6.5.2 (mac64) logging started Ven  5 mai 10:06:15 2017


Gurobi 6.5.2 (mac64) logging started Ven  5 mai 10:13:14 2017


Gurobi 6.5.2 (mac64) logging started Ven  5 mai 10:22:43 2017


Gurobi 6.5.2 (mac64) logging started Ven  5 mai 10:30:18 2017


Gurobi 6.5.2 (mac64) logging started Ven  5 mai 10:42:06 2017


Gurobi 6.5.2 (mac64) logging started Ven  5 mai 10:54:13 2017


Gurobi 6.5.2 (mac64) logging started Ven  5 mai 11:00:42 2017


Gurobi 6.5.2 (mac64) logging started Ven  5 mai 11:12:13 2017


Gurobi 6.5.2 (mac64) logging started Ven  5 mai 11:13:41 2017


Gurobi 6.5.2 (mac64) logging started Ven  5 mai 11:14:17 2017


Gurobi 6.5.2 (mac64) logging started Ven  5 mai 11:27:18 2017


Gurobi 6.5.2 (mac64) logging started Ven  5 mai 11:35:02 2017


Gurobi 6.5.2 (mac64) logging started Ven  5 mai 11:39:35 2017


Gurobi 6.5.2 (mac64) logging started Ven  5 mai 11:52:45 2017


Gurobi 6.5.2 (mac64) logging started Ven  5 mai 12:11:48 2017


Gurobi 6.5.2 (mac64) logging started Ven  5 mai 12:13:59 2017


Gurobi 6.5.2 (mac64) logging started Ven  5 mai 12:15:32 2017


Gurobi 6.5.2 (mac64) logging started Ven  5 mai 12:24:40 2017


Gurobi 6.5.2 (mac64) logging started Ven  5 mai 12:29:21 2017


Gurobi 6.5.2 (mac64) logging started Ven  5 mai 12:51:50 2017


Gurobi 6.5.2 (mac64) logging started Ven  5 mai 12:57:32 2017


Gurobi 6.5.2 (mac64) logging started Ven  5 mai 12:59:25 2017


Gurobi 6.5.2 (mac64) logging started Ven  5 mai 13:16:16 2017


Gurobi 6.5.2 (mac64) logging started Ven  5 mai 13:36:06 2017


Gurobi 6.5.2 (mac64) logging started Ven  5 mai 13:36:38 2017


Gurobi 6.5.2 (mac64) logging started Ven  5 mai 13:37:33 2017


Gurobi 6.5.2 (mac64) logging started Ven  5 mai 13:38:32 2017


Gurobi 6.5.2 (mac64) logging started Ven  5 mai 13:39:55 2017


Gurobi 6.5.2 (mac64) logging started Ven  5 mai 13:40:54 2017


Gurobi 6.5.2 (mac64) logging started Ven  5 mai 13:41:52 2017


Gurobi 6.5.2 (mac64) logging started Ven  5 mai 13:44:32 2017


Gurobi 6.5.2 (mac64) logging started Ven  5 mai 18:12:53 2017


Gurobi 6.5.2 (mac64) logging started Ven  5 mai 19:27:43 2017


Gurobi 6.5.2 (mac64) logging started Ven  5 mai 19:28:24 2017


Gurobi 6.5.2 (mac64) logging started Ven  5 mai 19:33:40 2017


Gurobi 6.5.2 (mac64) logging started Ven  5 mai 19:34:24 2017


Gurobi 6.5.2 (mac64) logging started Ven  5 mai 20:10:30 2017


Gurobi 6.5.2 (mac64) logging started Sam  6 mai 13:23:55 2017


Gurobi 6.5.2 (mac64) logging started Mar  9 mai 14:08:03 2017


Gurobi 6.5.2 (mac64) logging started Mar  9 mai 14:11:30 2017


Gurobi 6.5.2 (mac64) logging started Mar  9 mai 14:17:58 2017


Gurobi 6.5.2 (mac64) logging started Mar  9 mai 14:22:09 2017


Gurobi 6.5.2 (mac64) logging started Mar  9 mai 14:25:20 2017


Gurobi 6.5.2 (mac64) logging started Mar  9 mai 14:28:53 2017


Gurobi 6.5.2 (mac64) logging started Mar  9 mai 14:34:55 2017


Gurobi 6.5.2 (mac64) logging started Mar  9 mai 14:40:29 2017


Gurobi 6.5.2 (mac64) logging started Mar  9 mai 14:43:31 2017


Gurobi 6.5.2 (mac64) logging started Mar  9 mai 14:45:19 2017


Gurobi 6.5.2 (mac64) logging started Mar  9 mai 15:04:31 2017


Gurobi 6.5.2 (mac64) logging started Mar  9 mai 15:05:13 2017


Gurobi 6.5.2 (mac64) logging started Mar  9 mai 15:09:15 2017


Gurobi 6.5.2 (mac64) logging started Mar  9 mai 15:11:51 2017


Gurobi 6.5.2 (mac64) logging started Mar  9 mai 15:15:30 2017


Gurobi 6.5.2 (mac64) logging started Mar  9 mai 15:16:19 2017


Gurobi 6.5.2 (mac64) logging started Mar  9 mai 15:17:42 2017


Gurobi 6.5.2 (mac64) logging started Mar  9 mai 15:20:59 2017


Gurobi 6.5.2 (mac64) logging started Mar  9 mai 16:34:31 2017


Gurobi 6.5.2 (mac64) logging started Mar  9 mai 16:37:50 2017


Gurobi 6.5.2 (mac64) logging started Mar  9 mai 20:13:49 2017


Gurobi 6.5.2 (mac64) logging started Mar  9 mai 20:17:27 2017


Gurobi 6.5.2 (mac64) logging started Mar  9 mai 20:20:05 2017


Gurobi 6.5.2 (mac64) logging started Mar  9 mai 20:24:01 2017


Gurobi 6.5.2 (mac64) logging started Mar  9 mai 20:32:34 2017


Gurobi 6.5.2 (mac64) logging started Mar  9 mai 21:18:05 2017


Gurobi 6.5.2 (mac64) logging started Mar  9 mai 21:43:59 2017


Gurobi 6.5.2 (mac64) logging started Mar  9 mai 22:35:14 2017


Gurobi 6.5.2 (mac64) logging started Mer 10 mai 00:40:06 2017


Gurobi 6.5.2 (mac64) logging started Mer 10 mai 10:53:42 2017


Gurobi 6.5.2 (mac64) logging started Jeu 11 mai 12:14:28 2017


Gurobi 6.5.2 (mac64) logging started Jeu 11 mai 12:48:53 2017


Gurobi 6.5.2 (mac64) logging started Jeu 11 mai 15:15:56 2017


Gurobi 6.5.2 (mac64) logging started Jeu 11 mai 15:17:09 2017


Gurobi 6.5.2 (mac64) logging started Jeu 11 mai 15:29:31 2017


Gurobi 6.5.2 (mac64) logging started Jeu 11 mai 16:10:43 2017


Gurobi 6.5.2 (mac64) logging started Jeu 11 mai 16:20:36 2017


Gurobi 6.5.2 (mac64) logging started Jeu 11 mai 16:22:35 2017


Gurobi 6.5.2 (mac64) logging started Jeu 11 mai 16:25:10 2017


Gurobi 6.5.2 (mac64) logging started Jeu 11 mai 16:38:59 2017


Gurobi 6.5.2 (mac64) logging started Jeu 11 mai 16:48:18 2017


Gurobi 6.5.2 (mac64) logging started Jeu 11 mai 17:11:47 2017


Gurobi 6.5.2 (mac64) logging started Jeu 11 mai 17:20:31 2017


Gurobi 6.5.2 (mac64) logging started Jeu 11 mai 17:23:35 2017


Gurobi 6.5.2 (mac64) logging started Jeu 11 mai 17:26:49 2017


Gurobi 6.5.2 (mac64) logging started Jeu 11 mai 17:28:05 2017


Gurobi 6.5.2 (mac64) logging started Jeu 11 mai 17:43:42 2017


Gurobi 6.5.2 (mac64) logging started Jeu 11 mai 17:48:27 2017


Gurobi 6.5.2 (mac64) logging started Jeu 11 mai 17:50:41 2017


Gurobi 6.5.2 (mac64) logging started Jeu 11 mai 17:52:32 2017


Gurobi 6.5.2 (mac64) logging started Jeu 11 mai 17:54:51 2017


Gurobi 6.5.2 (mac64) logging started Jeu 11 mai 18:49:31 2017


Gurobi 6.5.2 (mac64) logging started Jeu 11 mai 19:05:37 2017


Gurobi 6.5.2 (mac64) logging started Jeu 11 mai 22:15:54 2017


Gurobi 6.5.2 (mac64) logging started Jeu 11 mai 22:38:50 2017


Gurobi 6.5.2 (mac64) logging started Jeu 11 mai 22:43:07 2017


Gurobi 6.5.2 (mac64) logging started Jeu 11 mai 22:57:38 2017


Gurobi 6.5.2 (mac64) logging started Jeu 11 mai 23:04:29 2017


Gurobi 6.5.2 (mac64) logging started Ven 12 mai 09:55:46 2017


Gurobi 6.5.2 (mac64) logging started Ven 12 mai 10:19:08 2017


Gurobi 6.5.2 (mac64) logging started Ven 12 mai 10:21:27 2017


Gurobi 6.5.2 (mac64) logging started Ven 12 mai 11:26:04 2017


Gurobi 6.5.2 (mac64) logging started Ven 12 mai 14:51:11 2017


Gurobi 6.5.2 (mac64) logging started Sam 13 mai 10:36:06 2017


Gurobi 6.5.2 (mac64) logging started Sam 13 mai 10:40:18 2017


Gurobi 6.5.2 (mac64) logging started Sam 13 mai 16:53:32 2017


Gurobi 6.5.2 (mac64) logging started Lun 15 mai 00:31:28 2017


Gurobi 6.5.2 (mac64) logging started Mar 16 mai 03:13:25 2017


Gurobi 6.5.2 (mac64) logging started Mar 16 mai 14:39:45 2017


Gurobi 6.5.2 (mac64) logging started Mar 16 mai 21:29:41 2017


Gurobi 6.5.2 (mac64) logging started Mar 16 mai 21:32:44 2017


Gurobi 6.5.2 (mac64) logging started Mar 16 mai 21:34:35 2017


Gurobi 6.5.2 (mac64) logging started Mar 16 mai 21:36:24 2017


Gurobi 6.5.2 (mac64) logging started Mar 16 mai 21:40:11 2017


Gurobi 6.5.2 (mac64) logging started Mar 16 mai 21:41:58 2017

